c at-most-one of 16 pigeons in 15 holes
c p1@1 1
c p1@2 2
c p1@3 3
c p1@4 4
c p1@5 5
c p1@6 6
c p1@7 7
c p1@8 8
c p1@9 9
c p1@10 10
c p1@11 11
c p1@12 12
c p1@13 13
c p1@14 14
c p1@15 15
c p2@1 16
c p2@2 17
c p2@3 18
c p2@4 19
c p2@5 20
c p2@6 21
c p2@7 22
c p2@8 23
c p2@9 24
c p2@10 25
c p2@11 26
c p2@12 27
c p2@13 28
c p2@14 29
c p2@15 30
c p3@1 31
c p3@2 32
c p3@3 33
c p3@4 34
c p3@5 35
c p3@6 36
c p3@7 37
c p3@8 38
c p3@9 39
c p3@10 40
c p3@11 41
c p3@12 42
c p3@13 43
c p3@14 44
c p3@15 45
c p4@1 46
c p4@2 47
c p4@3 48
c p4@4 49
c p4@5 50
c p4@6 51
c p4@7 52
c p4@8 53
c p4@9 54
c p4@10 55
c p4@11 56
c p4@12 57
c p4@13 58
c p4@14 59
c p4@15 60
c p5@1 61
c p5@2 62
c p5@3 63
c p5@4 64
c p5@5 65
c p5@6 66
c p5@7 67
c p5@8 68
c p5@9 69
c p5@10 70
c p5@11 71
c p5@12 72
c p5@13 73
c p5@14 74
c p5@15 75
c p6@1 76
c p6@2 77
c p6@3 78
c p6@4 79
c p6@5 80
c p6@6 81
c p6@7 82
c p6@8 83
c p6@9 84
c p6@10 85
c p6@11 86
c p6@12 87
c p6@13 88
c p6@14 89
c p6@15 90
c p7@1 91
c p7@2 92
c p7@3 93
c p7@4 94
c p7@5 95
c p7@6 96
c p7@7 97
c p7@8 98
c p7@9 99
c p7@10 100
c p7@11 101
c p7@12 102
c p7@13 103
c p7@14 104
c p7@15 105
c p8@1 106
c p8@2 107
c p8@3 108
c p8@4 109
c p8@5 110
c p8@6 111
c p8@7 112
c p8@8 113
c p8@9 114
c p8@10 115
c p8@11 116
c p8@12 117
c p8@13 118
c p8@14 119
c p8@15 120
c p9@1 121
c p9@2 122
c p9@3 123
c p9@4 124
c p9@5 125
c p9@6 126
c p9@7 127
c p9@8 128
c p9@9 129
c p9@10 130
c p9@11 131
c p9@12 132
c p9@13 133
c p9@14 134
c p9@15 135
c p10@1 136
c p10@2 137
c p10@3 138
c p10@4 139
c p10@5 140
c p10@6 141
c p10@7 142
c p10@8 143
c p10@9 144
c p10@10 145
c p10@11 146
c p10@12 147
c p10@13 148
c p10@14 149
c p10@15 150
c p11@1 151
c p11@2 152
c p11@3 153
c p11@4 154
c p11@5 155
c p11@6 156
c p11@7 157
c p11@8 158
c p11@9 159
c p11@10 160
c p11@11 161
c p11@12 162
c p11@13 163
c p11@14 164
c p11@15 165
c p12@1 166
c p12@2 167
c p12@3 168
c p12@4 169
c p12@5 170
c p12@6 171
c p12@7 172
c p12@8 173
c p12@9 174
c p12@10 175
c p12@11 176
c p12@12 177
c p12@13 178
c p12@14 179
c p12@15 180
c p13@1 181
c p13@2 182
c p13@3 183
c p13@4 184
c p13@5 185
c p13@6 186
c p13@7 187
c p13@8 188
c p13@9 189
c p13@10 190
c p13@11 191
c p13@12 192
c p13@13 193
c p13@14 194
c p13@15 195
c p14@1 196
c p14@2 197
c p14@3 198
c p14@4 199
c p14@5 200
c p14@6 201
c p14@7 202
c p14@8 203
c p14@9 204
c p14@10 205
c p14@11 206
c p14@12 207
c p14@13 208
c p14@14 209
c p14@15 210
c p15@1 211
c p15@2 212
c p15@3 213
c p15@4 214
c p15@5 215
c p15@6 216
c p15@7 217
c p15@8 218
c p15@9 219
c p15@10 220
c p15@11 221
c p15@12 222
c p15@13 223
c p15@14 224
c p15@15 225
c p16@1 226
c p16@2 227
c p16@3 228
c p16@4 229
c p16@5 230
c p16@6 231
c p16@7 232
c p16@8 233
c p16@9 234
c p16@10 235
c p16@11 236
c p16@12 237
c p16@13 238
c p16@14 239
c p16@15 240
p inccnf
1 2 3 4 5 6 7 8 9 10 11 12 13 14 15 0
16 17 18 19 20 21 22 23 24 25 26 27 28 29 30 0
31 32 33 34 35 36 37 38 39 40 41 42 43 44 45 0
46 47 48 49 50 51 52 53 54 55 56 57 58 59 60 0
61 62 63 64 65 66 67 68 69 70 71 72 73 74 75 0
76 77 78 79 80 81 82 83 84 85 86 87 88 89 90 0
91 92 93 94 95 96 97 98 99 100 101 102 103 104 105 0
106 107 108 109 110 111 112 113 114 115 116 117 118 119 120 0
121 122 123 124 125 126 127 128 129 130 131 132 133 134 135 0
136 137 138 139 140 141 142 143 144 145 146 147 148 149 150 0
151 152 153 154 155 156 157 158 159 160 161 162 163 164 165 0
166 167 168 169 170 171 172 173 174 175 176 177 178 179 180 0
181 182 183 184 185 186 187 188 189 190 191 192 193 194 195 0
196 197 198 199 200 201 202 203 204 205 206 207 208 209 210 0
211 212 213 214 215 216 217 218 219 220 221 222 223 224 225 0
226 227 228 229 230 231 232 233 234 235 236 237 238 239 240 0
-1 -16 0
-1 -31 0
-1 -46 0
-1 -61 0
-1 -76 0
-1 -91 0
-1 -106 0
-1 -121 0
-1 -136 0
-1 -151 0
-1 -166 0
-1 -181 0
-1 -196 0
-1 -211 0
-1 -226 0
-16 -31 0
-16 -46 0
-16 -61 0
-16 -76 0
-16 -91 0
-16 -106 0
-16 -121 0
-16 -136 0
-16 -151 0
-16 -166 0
-16 -181 0
-16 -196 0
-16 -211 0
-16 -226 0
-31 -46 0
-31 -61 0
-31 -76 0
-31 -91 0
-31 -106 0
-31 -121 0
-31 -136 0
-31 -151 0
-31 -166 0
-31 -181 0
-31 -196 0
-31 -211 0
-31 -226 0
-46 -61 0
-46 -76 0
-46 -91 0
-46 -106 0
-46 -121 0
-46 -136 0
-46 -151 0
-46 -166 0
-46 -181 0
-46 -196 0
-46 -211 0
-46 -226 0
-61 -76 0
-61 -91 0
-61 -106 0
-61 -121 0
-61 -136 0
-61 -151 0
-61 -166 0
-61 -181 0
-61 -196 0
-61 -211 0
-61 -226 0
-76 -91 0
-76 -106 0
-76 -121 0
-76 -136 0
-76 -151 0
-76 -166 0
-76 -181 0
-76 -196 0
-76 -211 0
-76 -226 0
-91 -106 0
-91 -121 0
-91 -136 0
-91 -151 0
-91 -166 0
-91 -181 0
-91 -196 0
-91 -211 0
-91 -226 0
-106 -121 0
-106 -136 0
-106 -151 0
-106 -166 0
-106 -181 0
-106 -196 0
-106 -211 0
-106 -226 0
-121 -136 0
-121 -151 0
-121 -166 0
-121 -181 0
-121 -196 0
-121 -211 0
-121 -226 0
-136 -151 0
-136 -166 0
-136 -181 0
-136 -196 0
-136 -211 0
-136 -226 0
-151 -166 0
-151 -181 0
-151 -196 0
-151 -211 0
-151 -226 0
-166 -181 0
-166 -196 0
-166 -211 0
-166 -226 0
-181 -196 0
-181 -211 0
-181 -226 0
-196 -211 0
-196 -226 0
-211 -226 0
-2 -17 0
-2 -32 0
-2 -47 0
-2 -62 0
-2 -77 0
-2 -92 0
-2 -107 0
-2 -122 0
-2 -137 0
-2 -152 0
-2 -167 0
-2 -182 0
-2 -197 0
-2 -212 0
-2 -227 0
-17 -32 0
-17 -47 0
-17 -62 0
-17 -77 0
-17 -92 0
-17 -107 0
-17 -122 0
-17 -137 0
-17 -152 0
-17 -167 0
-17 -182 0
-17 -197 0
-17 -212 0
-17 -227 0
-32 -47 0
-32 -62 0
-32 -77 0
-32 -92 0
-32 -107 0
-32 -122 0
-32 -137 0
-32 -152 0
-32 -167 0
-32 -182 0
-32 -197 0
-32 -212 0
-32 -227 0
-47 -62 0
-47 -77 0
-47 -92 0
-47 -107 0
-47 -122 0
-47 -137 0
-47 -152 0
-47 -167 0
-47 -182 0
-47 -197 0
-47 -212 0
-47 -227 0
-62 -77 0
-62 -92 0
-62 -107 0
-62 -122 0
-62 -137 0
-62 -152 0
-62 -167 0
-62 -182 0
-62 -197 0
-62 -212 0
-62 -227 0
-77 -92 0
-77 -107 0
-77 -122 0
-77 -137 0
-77 -152 0
-77 -167 0
-77 -182 0
-77 -197 0
-77 -212 0
-77 -227 0
-92 -107 0
-92 -122 0
-92 -137 0
-92 -152 0
-92 -167 0
-92 -182 0
-92 -197 0
-92 -212 0
-92 -227 0
-107 -122 0
-107 -137 0
-107 -152 0
-107 -167 0
-107 -182 0
-107 -197 0
-107 -212 0
-107 -227 0
-122 -137 0
-122 -152 0
-122 -167 0
-122 -182 0
-122 -197 0
-122 -212 0
-122 -227 0
-137 -152 0
-137 -167 0
-137 -182 0
-137 -197 0
-137 -212 0
-137 -227 0
-152 -167 0
-152 -182 0
-152 -197 0
-152 -212 0
-152 -227 0
-167 -182 0
-167 -197 0
-167 -212 0
-167 -227 0
-182 -197 0
-182 -212 0
-182 -227 0
-197 -212 0
-197 -227 0
-212 -227 0
-3 -18 0
-3 -33 0
-3 -48 0
-3 -63 0
-3 -78 0
-3 -93 0
-3 -108 0
-3 -123 0
-3 -138 0
-3 -153 0
-3 -168 0
-3 -183 0
-3 -198 0
-3 -213 0
-3 -228 0
-18 -33 0
-18 -48 0
-18 -63 0
-18 -78 0
-18 -93 0
-18 -108 0
-18 -123 0
-18 -138 0
-18 -153 0
-18 -168 0
-18 -183 0
-18 -198 0
-18 -213 0
-18 -228 0
-33 -48 0
-33 -63 0
-33 -78 0
-33 -93 0
-33 -108 0
-33 -123 0
-33 -138 0
-33 -153 0
-33 -168 0
-33 -183 0
-33 -198 0
-33 -213 0
-33 -228 0
-48 -63 0
-48 -78 0
-48 -93 0
-48 -108 0
-48 -123 0
-48 -138 0
-48 -153 0
-48 -168 0
-48 -183 0
-48 -198 0
-48 -213 0
-48 -228 0
-63 -78 0
-63 -93 0
-63 -108 0
-63 -123 0
-63 -138 0
-63 -153 0
-63 -168 0
-63 -183 0
-63 -198 0
-63 -213 0
-63 -228 0
-78 -93 0
-78 -108 0
-78 -123 0
-78 -138 0
-78 -153 0
-78 -168 0
-78 -183 0
-78 -198 0
-78 -213 0
-78 -228 0
-93 -108 0
-93 -123 0
-93 -138 0
-93 -153 0
-93 -168 0
-93 -183 0
-93 -198 0
-93 -213 0
-93 -228 0
-108 -123 0
-108 -138 0
-108 -153 0
-108 -168 0
-108 -183 0
-108 -198 0
-108 -213 0
-108 -228 0
-123 -138 0
-123 -153 0
-123 -168 0
-123 -183 0
-123 -198 0
-123 -213 0
-123 -228 0
-138 -153 0
-138 -168 0
-138 -183 0
-138 -198 0
-138 -213 0
-138 -228 0
-153 -168 0
-153 -183 0
-153 -198 0
-153 -213 0
-153 -228 0
-168 -183 0
-168 -198 0
-168 -213 0
-168 -228 0
-183 -198 0
-183 -213 0
-183 -228 0
-198 -213 0
-198 -228 0
-213 -228 0
-4 -19 0
-4 -34 0
-4 -49 0
-4 -64 0
-4 -79 0
-4 -94 0
-4 -109 0
-4 -124 0
-4 -139 0
-4 -154 0
-4 -169 0
-4 -184 0
-4 -199 0
-4 -214 0
-4 -229 0
-19 -34 0
-19 -49 0
-19 -64 0
-19 -79 0
-19 -94 0
-19 -109 0
-19 -124 0
-19 -139 0
-19 -154 0
-19 -169 0
-19 -184 0
-19 -199 0
-19 -214 0
-19 -229 0
-34 -49 0
-34 -64 0
-34 -79 0
-34 -94 0
-34 -109 0
-34 -124 0
-34 -139 0
-34 -154 0
-34 -169 0
-34 -184 0
-34 -199 0
-34 -214 0
-34 -229 0
-49 -64 0
-49 -79 0
-49 -94 0
-49 -109 0
-49 -124 0
-49 -139 0
-49 -154 0
-49 -169 0
-49 -184 0
-49 -199 0
-49 -214 0
-49 -229 0
-64 -79 0
-64 -94 0
-64 -109 0
-64 -124 0
-64 -139 0
-64 -154 0
-64 -169 0
-64 -184 0
-64 -199 0
-64 -214 0
-64 -229 0
-79 -94 0
-79 -109 0
-79 -124 0
-79 -139 0
-79 -154 0
-79 -169 0
-79 -184 0
-79 -199 0
-79 -214 0
-79 -229 0
-94 -109 0
-94 -124 0
-94 -139 0
-94 -154 0
-94 -169 0
-94 -184 0
-94 -199 0
-94 -214 0
-94 -229 0
-109 -124 0
-109 -139 0
-109 -154 0
-109 -169 0
-109 -184 0
-109 -199 0
-109 -214 0
-109 -229 0
-124 -139 0
-124 -154 0
-124 -169 0
-124 -184 0
-124 -199 0
-124 -214 0
-124 -229 0
-139 -154 0
-139 -169 0
-139 -184 0
-139 -199 0
-139 -214 0
-139 -229 0
-154 -169 0
-154 -184 0
-154 -199 0
-154 -214 0
-154 -229 0
-169 -184 0
-169 -199 0
-169 -214 0
-169 -229 0
-184 -199 0
-184 -214 0
-184 -229 0
-199 -214 0
-199 -229 0
-214 -229 0
-5 -20 0
-5 -35 0
-5 -50 0
-5 -65 0
-5 -80 0
-5 -95 0
-5 -110 0
-5 -125 0
-5 -140 0
-5 -155 0
-5 -170 0
-5 -185 0
-5 -200 0
-5 -215 0
-5 -230 0
-20 -35 0
-20 -50 0
-20 -65 0
-20 -80 0
-20 -95 0
-20 -110 0
-20 -125 0
-20 -140 0
-20 -155 0
-20 -170 0
-20 -185 0
-20 -200 0
-20 -215 0
-20 -230 0
-35 -50 0
-35 -65 0
-35 -80 0
-35 -95 0
-35 -110 0
-35 -125 0
-35 -140 0
-35 -155 0
-35 -170 0
-35 -185 0
-35 -200 0
-35 -215 0
-35 -230 0
-50 -65 0
-50 -80 0
-50 -95 0
-50 -110 0
-50 -125 0
-50 -140 0
-50 -155 0
-50 -170 0
-50 -185 0
-50 -200 0
-50 -215 0
-50 -230 0
-65 -80 0
-65 -95 0
-65 -110 0
-65 -125 0
-65 -140 0
-65 -155 0
-65 -170 0
-65 -185 0
-65 -200 0
-65 -215 0
-65 -230 0
-80 -95 0
-80 -110 0
-80 -125 0
-80 -140 0
-80 -155 0
-80 -170 0
-80 -185 0
-80 -200 0
-80 -215 0
-80 -230 0
-95 -110 0
-95 -125 0
-95 -140 0
-95 -155 0
-95 -170 0
-95 -185 0
-95 -200 0
-95 -215 0
-95 -230 0
-110 -125 0
-110 -140 0
-110 -155 0
-110 -170 0
-110 -185 0
-110 -200 0
-110 -215 0
-110 -230 0
-125 -140 0
-125 -155 0
-125 -170 0
-125 -185 0
-125 -200 0
-125 -215 0
-125 -230 0
-140 -155 0
-140 -170 0
-140 -185 0
-140 -200 0
-140 -215 0
-140 -230 0
-155 -170 0
-155 -185 0
-155 -200 0
-155 -215 0
-155 -230 0
-170 -185 0
-170 -200 0
-170 -215 0
-170 -230 0
-185 -200 0
-185 -215 0
-185 -230 0
-200 -215 0
-200 -230 0
-215 -230 0
-6 -21 0
-6 -36 0
-6 -51 0
-6 -66 0
-6 -81 0
-6 -96 0
-6 -111 0
-6 -126 0
-6 -141 0
-6 -156 0
-6 -171 0
-6 -186 0
-6 -201 0
-6 -216 0
-6 -231 0
-21 -36 0
-21 -51 0
-21 -66 0
-21 -81 0
-21 -96 0
-21 -111 0
-21 -126 0
-21 -141 0
-21 -156 0
-21 -171 0
-21 -186 0
-21 -201 0
-21 -216 0
-21 -231 0
-36 -51 0
-36 -66 0
-36 -81 0
-36 -96 0
-36 -111 0
-36 -126 0
-36 -141 0
-36 -156 0
-36 -171 0
-36 -186 0
-36 -201 0
-36 -216 0
-36 -231 0
-51 -66 0
-51 -81 0
-51 -96 0
-51 -111 0
-51 -126 0
-51 -141 0
-51 -156 0
-51 -171 0
-51 -186 0
-51 -201 0
-51 -216 0
-51 -231 0
-66 -81 0
-66 -96 0
-66 -111 0
-66 -126 0
-66 -141 0
-66 -156 0
-66 -171 0
-66 -186 0
-66 -201 0
-66 -216 0
-66 -231 0
-81 -96 0
-81 -111 0
-81 -126 0
-81 -141 0
-81 -156 0
-81 -171 0
-81 -186 0
-81 -201 0
-81 -216 0
-81 -231 0
-96 -111 0
-96 -126 0
-96 -141 0
-96 -156 0
-96 -171 0
-96 -186 0
-96 -201 0
-96 -216 0
-96 -231 0
-111 -126 0
-111 -141 0
-111 -156 0
-111 -171 0
-111 -186 0
-111 -201 0
-111 -216 0
-111 -231 0
-126 -141 0
-126 -156 0
-126 -171 0
-126 -186 0
-126 -201 0
-126 -216 0
-126 -231 0
-141 -156 0
-141 -171 0
-141 -186 0
-141 -201 0
-141 -216 0
-141 -231 0
-156 -171 0
-156 -186 0
-156 -201 0
-156 -216 0
-156 -231 0
-171 -186 0
-171 -201 0
-171 -216 0
-171 -231 0
-186 -201 0
-186 -216 0
-186 -231 0
-201 -216 0
-201 -231 0
-216 -231 0
-7 -22 0
-7 -37 0
-7 -52 0
-7 -67 0
-7 -82 0
-7 -97 0
-7 -112 0
-7 -127 0
-7 -142 0
-7 -157 0
-7 -172 0
-7 -187 0
-7 -202 0
-7 -217 0
-7 -232 0
-22 -37 0
-22 -52 0
-22 -67 0
-22 -82 0
-22 -97 0
-22 -112 0
-22 -127 0
-22 -142 0
-22 -157 0
-22 -172 0
-22 -187 0
-22 -202 0
-22 -217 0
-22 -232 0
-37 -52 0
-37 -67 0
-37 -82 0
-37 -97 0
-37 -112 0
-37 -127 0
-37 -142 0
-37 -157 0
-37 -172 0
-37 -187 0
-37 -202 0
-37 -217 0
-37 -232 0
-52 -67 0
-52 -82 0
-52 -97 0
-52 -112 0
-52 -127 0
-52 -142 0
-52 -157 0
-52 -172 0
-52 -187 0
-52 -202 0
-52 -217 0
-52 -232 0
-67 -82 0
-67 -97 0
-67 -112 0
-67 -127 0
-67 -142 0
-67 -157 0
-67 -172 0
-67 -187 0
-67 -202 0
-67 -217 0
-67 -232 0
-82 -97 0
-82 -112 0
-82 -127 0
-82 -142 0
-82 -157 0
-82 -172 0
-82 -187 0
-82 -202 0
-82 -217 0
-82 -232 0
-97 -112 0
-97 -127 0
-97 -142 0
-97 -157 0
-97 -172 0
-97 -187 0
-97 -202 0
-97 -217 0
-97 -232 0
-112 -127 0
-112 -142 0
-112 -157 0
-112 -172 0
-112 -187 0
-112 -202 0
-112 -217 0
-112 -232 0
-127 -142 0
-127 -157 0
-127 -172 0
-127 -187 0
-127 -202 0
-127 -217 0
-127 -232 0
-142 -157 0
-142 -172 0
-142 -187 0
-142 -202 0
-142 -217 0
-142 -232 0
-157 -172 0
-157 -187 0
-157 -202 0
-157 -217 0
-157 -232 0
-172 -187 0
-172 -202 0
-172 -217 0
-172 -232 0
-187 -202 0
-187 -217 0
-187 -232 0
-202 -217 0
-202 -232 0
-217 -232 0
-8 -23 0
-8 -38 0
-8 -53 0
-8 -68 0
-8 -83 0
-8 -98 0
-8 -113 0
-8 -128 0
-8 -143 0
-8 -158 0
-8 -173 0
-8 -188 0
-8 -203 0
-8 -218 0
-8 -233 0
-23 -38 0
-23 -53 0
-23 -68 0
-23 -83 0
-23 -98 0
-23 -113 0
-23 -128 0
-23 -143 0
-23 -158 0
-23 -173 0
-23 -188 0
-23 -203 0
-23 -218 0
-23 -233 0
-38 -53 0
-38 -68 0
-38 -83 0
-38 -98 0
-38 -113 0
-38 -128 0
-38 -143 0
-38 -158 0
-38 -173 0
-38 -188 0
-38 -203 0
-38 -218 0
-38 -233 0
-53 -68 0
-53 -83 0
-53 -98 0
-53 -113 0
-53 -128 0
-53 -143 0
-53 -158 0
-53 -173 0
-53 -188 0
-53 -203 0
-53 -218 0
-53 -233 0
-68 -83 0
-68 -98 0
-68 -113 0
-68 -128 0
-68 -143 0
-68 -158 0
-68 -173 0
-68 -188 0
-68 -203 0
-68 -218 0
-68 -233 0
-83 -98 0
-83 -113 0
-83 -128 0
-83 -143 0
-83 -158 0
-83 -173 0
-83 -188 0
-83 -203 0
-83 -218 0
-83 -233 0
-98 -113 0
-98 -128 0
-98 -143 0
-98 -158 0
-98 -173 0
-98 -188 0
-98 -203 0
-98 -218 0
-98 -233 0
-113 -128 0
-113 -143 0
-113 -158 0
-113 -173 0
-113 -188 0
-113 -203 0
-113 -218 0
-113 -233 0
-128 -143 0
-128 -158 0
-128 -173 0
-128 -188 0
-128 -203 0
-128 -218 0
-128 -233 0
-143 -158 0
-143 -173 0
-143 -188 0
-143 -203 0
-143 -218 0
-143 -233 0
-158 -173 0
-158 -188 0
-158 -203 0
-158 -218 0
-158 -233 0
-173 -188 0
-173 -203 0
-173 -218 0
-173 -233 0
-188 -203 0
-188 -218 0
-188 -233 0
-203 -218 0
-203 -233 0
-218 -233 0
-9 -24 0
-9 -39 0
-9 -54 0
-9 -69 0
-9 -84 0
-9 -99 0
-9 -114 0
-9 -129 0
-9 -144 0
-9 -159 0
-9 -174 0
-9 -189 0
-9 -204 0
-9 -219 0
-9 -234 0
-24 -39 0
-24 -54 0
-24 -69 0
-24 -84 0
-24 -99 0
-24 -114 0
-24 -129 0
-24 -144 0
-24 -159 0
-24 -174 0
-24 -189 0
-24 -204 0
-24 -219 0
-24 -234 0
-39 -54 0
-39 -69 0
-39 -84 0
-39 -99 0
-39 -114 0
-39 -129 0
-39 -144 0
-39 -159 0
-39 -174 0
-39 -189 0
-39 -204 0
-39 -219 0
-39 -234 0
-54 -69 0
-54 -84 0
-54 -99 0
-54 -114 0
-54 -129 0
-54 -144 0
-54 -159 0
-54 -174 0
-54 -189 0
-54 -204 0
-54 -219 0
-54 -234 0
-69 -84 0
-69 -99 0
-69 -114 0
-69 -129 0
-69 -144 0
-69 -159 0
-69 -174 0
-69 -189 0
-69 -204 0
-69 -219 0
-69 -234 0
-84 -99 0
-84 -114 0
-84 -129 0
-84 -144 0
-84 -159 0
-84 -174 0
-84 -189 0
-84 -204 0
-84 -219 0
-84 -234 0
-99 -114 0
-99 -129 0
-99 -144 0
-99 -159 0
-99 -174 0
-99 -189 0
-99 -204 0
-99 -219 0
-99 -234 0
-114 -129 0
-114 -144 0
-114 -159 0
-114 -174 0
-114 -189 0
-114 -204 0
-114 -219 0
-114 -234 0
-129 -144 0
-129 -159 0
-129 -174 0
-129 -189 0
-129 -204 0
-129 -219 0
-129 -234 0
-144 -159 0
-144 -174 0
-144 -189 0
-144 -204 0
-144 -219 0
-144 -234 0
-159 -174 0
-159 -189 0
-159 -204 0
-159 -219 0
-159 -234 0
-174 -189 0
-174 -204 0
-174 -219 0
-174 -234 0
-189 -204 0
-189 -219 0
-189 -234 0
-204 -219 0
-204 -234 0
-219 -234 0
-10 -25 0
-10 -40 0
-10 -55 0
-10 -70 0
-10 -85 0
-10 -100 0
-10 -115 0
-10 -130 0
-10 -145 0
-10 -160 0
-10 -175 0
-10 -190 0
-10 -205 0
-10 -220 0
-10 -235 0
-25 -40 0
-25 -55 0
-25 -70 0
-25 -85 0
-25 -100 0
-25 -115 0
-25 -130 0
-25 -145 0
-25 -160 0
-25 -175 0
-25 -190 0
-25 -205 0
-25 -220 0
-25 -235 0
-40 -55 0
-40 -70 0
-40 -85 0
-40 -100 0
-40 -115 0
-40 -130 0
-40 -145 0
-40 -160 0
-40 -175 0
-40 -190 0
-40 -205 0
-40 -220 0
-40 -235 0
-55 -70 0
-55 -85 0
-55 -100 0
-55 -115 0
-55 -130 0
-55 -145 0
-55 -160 0
-55 -175 0
-55 -190 0
-55 -205 0
-55 -220 0
-55 -235 0
-70 -85 0
-70 -100 0
-70 -115 0
-70 -130 0
-70 -145 0
-70 -160 0
-70 -175 0
-70 -190 0
-70 -205 0
-70 -220 0
-70 -235 0
-85 -100 0
-85 -115 0
-85 -130 0
-85 -145 0
-85 -160 0
-85 -175 0
-85 -190 0
-85 -205 0
-85 -220 0
-85 -235 0
-100 -115 0
-100 -130 0
-100 -145 0
-100 -160 0
-100 -175 0
-100 -190 0
-100 -205 0
-100 -220 0
-100 -235 0
-115 -130 0
-115 -145 0
-115 -160 0
-115 -175 0
-115 -190 0
-115 -205 0
-115 -220 0
-115 -235 0
-130 -145 0
-130 -160 0
-130 -175 0
-130 -190 0
-130 -205 0
-130 -220 0
-130 -235 0
-145 -160 0
-145 -175 0
-145 -190 0
-145 -205 0
-145 -220 0
-145 -235 0
-160 -175 0
-160 -190 0
-160 -205 0
-160 -220 0
-160 -235 0
-175 -190 0
-175 -205 0
-175 -220 0
-175 -235 0
-190 -205 0
-190 -220 0
-190 -235 0
-205 -220 0
-205 -235 0
-220 -235 0
-11 -26 0
-11 -41 0
-11 -56 0
-11 -71 0
-11 -86 0
-11 -101 0
-11 -116 0
-11 -131 0
-11 -146 0
-11 -161 0
-11 -176 0
-11 -191 0
-11 -206 0
-11 -221 0
-11 -236 0
-26 -41 0
-26 -56 0
-26 -71 0
-26 -86 0
-26 -101 0
-26 -116 0
-26 -131 0
-26 -146 0
-26 -161 0
-26 -176 0
-26 -191 0
-26 -206 0
-26 -221 0
-26 -236 0
-41 -56 0
-41 -71 0
-41 -86 0
-41 -101 0
-41 -116 0
-41 -131 0
-41 -146 0
-41 -161 0
-41 -176 0
-41 -191 0
-41 -206 0
-41 -221 0
-41 -236 0
-56 -71 0
-56 -86 0
-56 -101 0
-56 -116 0
-56 -131 0
-56 -146 0
-56 -161 0
-56 -176 0
-56 -191 0
-56 -206 0
-56 -221 0
-56 -236 0
-71 -86 0
-71 -101 0
-71 -116 0
-71 -131 0
-71 -146 0
-71 -161 0
-71 -176 0
-71 -191 0
-71 -206 0
-71 -221 0
-71 -236 0
-86 -101 0
-86 -116 0
-86 -131 0
-86 -146 0
-86 -161 0
-86 -176 0
-86 -191 0
-86 -206 0
-86 -221 0
-86 -236 0
-101 -116 0
-101 -131 0
-101 -146 0
-101 -161 0
-101 -176 0
-101 -191 0
-101 -206 0
-101 -221 0
-101 -236 0
-116 -131 0
-116 -146 0
-116 -161 0
-116 -176 0
-116 -191 0
-116 -206 0
-116 -221 0
-116 -236 0
-131 -146 0
-131 -161 0
-131 -176 0
-131 -191 0
-131 -206 0
-131 -221 0
-131 -236 0
-146 -161 0
-146 -176 0
-146 -191 0
-146 -206 0
-146 -221 0
-146 -236 0
-161 -176 0
-161 -191 0
-161 -206 0
-161 -221 0
-161 -236 0
-176 -191 0
-176 -206 0
-176 -221 0
-176 -236 0
-191 -206 0
-191 -221 0
-191 -236 0
-206 -221 0
-206 -236 0
-221 -236 0
-12 -27 0
-12 -42 0
-12 -57 0
-12 -72 0
-12 -87 0
-12 -102 0
-12 -117 0
-12 -132 0
-12 -147 0
-12 -162 0
-12 -177 0
-12 -192 0
-12 -207 0
-12 -222 0
-12 -237 0
-27 -42 0
-27 -57 0
-27 -72 0
-27 -87 0
-27 -102 0
-27 -117 0
-27 -132 0
-27 -147 0
-27 -162 0
-27 -177 0
-27 -192 0
-27 -207 0
-27 -222 0
-27 -237 0
-42 -57 0
-42 -72 0
-42 -87 0
-42 -102 0
-42 -117 0
-42 -132 0
-42 -147 0
-42 -162 0
-42 -177 0
-42 -192 0
-42 -207 0
-42 -222 0
-42 -237 0
-57 -72 0
-57 -87 0
-57 -102 0
-57 -117 0
-57 -132 0
-57 -147 0
-57 -162 0
-57 -177 0
-57 -192 0
-57 -207 0
-57 -222 0
-57 -237 0
-72 -87 0
-72 -102 0
-72 -117 0
-72 -132 0
-72 -147 0
-72 -162 0
-72 -177 0
-72 -192 0
-72 -207 0
-72 -222 0
-72 -237 0
-87 -102 0
-87 -117 0
-87 -132 0
-87 -147 0
-87 -162 0
-87 -177 0
-87 -192 0
-87 -207 0
-87 -222 0
-87 -237 0
-102 -117 0
-102 -132 0
-102 -147 0
-102 -162 0
-102 -177 0
-102 -192 0
-102 -207 0
-102 -222 0
-102 -237 0
-117 -132 0
-117 -147 0
-117 -162 0
-117 -177 0
-117 -192 0
-117 -207 0
-117 -222 0
-117 -237 0
-132 -147 0
-132 -162 0
-132 -177 0
-132 -192 0
-132 -207 0
-132 -222 0
-132 -237 0
-147 -162 0
-147 -177 0
-147 -192 0
-147 -207 0
-147 -222 0
-147 -237 0
-162 -177 0
-162 -192 0
-162 -207 0
-162 -222 0
-162 -237 0
-177 -192 0
-177 -207 0
-177 -222 0
-177 -237 0
-192 -207 0
-192 -222 0
-192 -237 0
-207 -222 0
-207 -237 0
-222 -237 0
-13 -28 0
-13 -43 0
-13 -58 0
-13 -73 0
-13 -88 0
-13 -103 0
-13 -118 0
-13 -133 0
-13 -148 0
-13 -163 0
-13 -178 0
-13 -193 0
-13 -208 0
-13 -223 0
-13 -238 0
-28 -43 0
-28 -58 0
-28 -73 0
-28 -88 0
-28 -103 0
-28 -118 0
-28 -133 0
-28 -148 0
-28 -163 0
-28 -178 0
-28 -193 0
-28 -208 0
-28 -223 0
-28 -238 0
-43 -58 0
-43 -73 0
-43 -88 0
-43 -103 0
-43 -118 0
-43 -133 0
-43 -148 0
-43 -163 0
-43 -178 0
-43 -193 0
-43 -208 0
-43 -223 0
-43 -238 0
-58 -73 0
-58 -88 0
-58 -103 0
-58 -118 0
-58 -133 0
-58 -148 0
-58 -163 0
-58 -178 0
-58 -193 0
-58 -208 0
-58 -223 0
-58 -238 0
-73 -88 0
-73 -103 0
-73 -118 0
-73 -133 0
-73 -148 0
-73 -163 0
-73 -178 0
-73 -193 0
-73 -208 0
-73 -223 0
-73 -238 0
-88 -103 0
-88 -118 0
-88 -133 0
-88 -148 0
-88 -163 0
-88 -178 0
-88 -193 0
-88 -208 0
-88 -223 0
-88 -238 0
-103 -118 0
-103 -133 0
-103 -148 0
-103 -163 0
-103 -178 0
-103 -193 0
-103 -208 0
-103 -223 0
-103 -238 0
-118 -133 0
-118 -148 0
-118 -163 0
-118 -178 0
-118 -193 0
-118 -208 0
-118 -223 0
-118 -238 0
-133 -148 0
-133 -163 0
-133 -178 0
-133 -193 0
-133 -208 0
-133 -223 0
-133 -238 0
-148 -163 0
-148 -178 0
-148 -193 0
-148 -208 0
-148 -223 0
-148 -238 0
-163 -178 0
-163 -193 0
-163 -208 0
-163 -223 0
-163 -238 0
-178 -193 0
-178 -208 0
-178 -223 0
-178 -238 0
-193 -208 0
-193 -223 0
-193 -238 0
-208 -223 0
-208 -238 0
-223 -238 0
-14 -29 0
-14 -44 0
-14 -59 0
-14 -74 0
-14 -89 0
-14 -104 0
-14 -119 0
-14 -134 0
-14 -149 0
-14 -164 0
-14 -179 0
-14 -194 0
-14 -209 0
-14 -224 0
-14 -239 0
-29 -44 0
-29 -59 0
-29 -74 0
-29 -89 0
-29 -104 0
-29 -119 0
-29 -134 0
-29 -149 0
-29 -164 0
-29 -179 0
-29 -194 0
-29 -209 0
-29 -224 0
-29 -239 0
-44 -59 0
-44 -74 0
-44 -89 0
-44 -104 0
-44 -119 0
-44 -134 0
-44 -149 0
-44 -164 0
-44 -179 0
-44 -194 0
-44 -209 0
-44 -224 0
-44 -239 0
-59 -74 0
-59 -89 0
-59 -104 0
-59 -119 0
-59 -134 0
-59 -149 0
-59 -164 0
-59 -179 0
-59 -194 0
-59 -209 0
-59 -224 0
-59 -239 0
-74 -89 0
-74 -104 0
-74 -119 0
-74 -134 0
-74 -149 0
-74 -164 0
-74 -179 0
-74 -194 0
-74 -209 0
-74 -224 0
-74 -239 0
-89 -104 0
-89 -119 0
-89 -134 0
-89 -149 0
-89 -164 0
-89 -179 0
-89 -194 0
-89 -209 0
-89 -224 0
-89 -239 0
-104 -119 0
-104 -134 0
-104 -149 0
-104 -164 0
-104 -179 0
-104 -194 0
-104 -209 0
-104 -224 0
-104 -239 0
-119 -134 0
-119 -149 0
-119 -164 0
-119 -179 0
-119 -194 0
-119 -209 0
-119 -224 0
-119 -239 0
-134 -149 0
-134 -164 0
-134 -179 0
-134 -194 0
-134 -209 0
-134 -224 0
-134 -239 0
-149 -164 0
-149 -179 0
-149 -194 0
-149 -209 0
-149 -224 0
-149 -239 0
-164 -179 0
-164 -194 0
-164 -209 0
-164 -224 0
-164 -239 0
-179 -194 0
-179 -209 0
-179 -224 0
-179 -239 0
-194 -209 0
-194 -224 0
-194 -239 0
-209 -224 0
-209 -239 0
-224 -239 0
-15 -30 0
-15 -45 0
-15 -60 0
-15 -75 0
-15 -90 0
-15 -105 0
-15 -120 0
-15 -135 0
-15 -150 0
-15 -165 0
-15 -180 0
-15 -195 0
-15 -210 0
-15 -225 0
-15 -240 0
-30 -45 0
-30 -60 0
-30 -75 0
-30 -90 0
-30 -105 0
-30 -120 0
-30 -135 0
-30 -150 0
-30 -165 0
-30 -180 0
-30 -195 0
-30 -210 0
-30 -225 0
-30 -240 0
-45 -60 0
-45 -75 0
-45 -90 0
-45 -105 0
-45 -120 0
-45 -135 0
-45 -150 0
-45 -165 0
-45 -180 0
-45 -195 0
-45 -210 0
-45 -225 0
-45 -240 0
-60 -75 0
-60 -90 0
-60 -105 0
-60 -120 0
-60 -135 0
-60 -150 0
-60 -165 0
-60 -180 0
-60 -195 0
-60 -210 0
-60 -225 0
-60 -240 0
-75 -90 0
-75 -105 0
-75 -120 0
-75 -135 0
-75 -150 0
-75 -165 0
-75 -180 0
-75 -195 0
-75 -210 0
-75 -225 0
-75 -240 0
-90 -105 0
-90 -120 0
-90 -135 0
-90 -150 0
-90 -165 0
-90 -180 0
-90 -195 0
-90 -210 0
-90 -225 0
-90 -240 0
-105 -120 0
-105 -135 0
-105 -150 0
-105 -165 0
-105 -180 0
-105 -195 0
-105 -210 0
-105 -225 0
-105 -240 0
-120 -135 0
-120 -150 0
-120 -165 0
-120 -180 0
-120 -195 0
-120 -210 0
-120 -225 0
-120 -240 0
-135 -150 0
-135 -165 0
-135 -180 0
-135 -195 0
-135 -210 0
-135 -225 0
-135 -240 0
-150 -165 0
-150 -180 0
-150 -195 0
-150 -210 0
-150 -225 0
-150 -240 0
-165 -180 0
-165 -195 0
-165 -210 0
-165 -225 0
-165 -240 0
-180 -195 0
-180 -210 0
-180 -225 0
-180 -240 0
-195 -210 0
-195 -225 0
-195 -240 0
-210 -225 0
-210 -240 0
-225 -240 0
a 1 17 0 
a 1 18 0 
a 1 19 0 
a 1 20 0 
a 1 21 0 
a 1 22 0 
a 1 23 0 
a 1 24 0 
a 1 25 0 
a 1 26 0 
a 1 27 0 
a 1 28 0 
a 1 29 0 
a 1 30 0 
a 1 32 0 
a 1 33 0 
a 1 34 0 
a 1 35 0 
a 1 36 0 
a 1 37 0 
a 1 38 0 
a 1 39 0 
a 1 40 0 
a 1 41 0 
a 1 42 0 
a 1 43 0 
a 1 44 0 
a 1 45 0 
a 1 47 0 
a 1 48 0 
a 1 49 0 
a 1 50 0 
a 1 51 0 
a 1 52 0 
a 1 53 0 
a 1 54 0 
a 1 55 0 
a 1 56 0 
a 1 57 0 
a 1 58 0 
a 1 59 0 
a 1 60 0 
a 1 62 0 
a 1 63 0 
a 1 64 0 
a 1 65 0 
a 1 66 0 
a 1 67 0 
a 1 68 0 
a 1 69 0 
a 1 70 0 
a 1 71 0 
a 1 72 0 
a 1 73 0 
a 1 74 0 
a 1 75 0 
a 1 77 0 
a 1 78 0 
a 1 79 0 
a 1 80 0 
a 1 81 0 
a 1 82 0 
a 1 83 0 
a 1 84 0 
a 1 85 0 
a 1 86 0 
a 1 87 0 
a 1 88 0 
a 1 89 0 
a 1 90 0 
a 1 92 0 
a 1 93 0 
a 1 94 0 
a 1 95 0 
a 1 96 0 
a 1 97 0 
a 1 98 0 
a 1 99 0 
a 1 100 0 
a 1 101 0 
a 1 102 0 
a 1 103 0 
a 1 104 0 
a 1 105 0 
a 1 107 0 
a 1 108 0 
a 1 109 0 
a 1 110 0 
a 1 111 0 
a 1 112 0 
a 1 113 0 
a 1 114 0 
a 1 115 0 
a 1 116 0 
a 1 117 0 
a 1 118 0 
a 1 119 0 
a 1 120 0 
a 1 122 0 
a 1 123 0 
a 1 124 0 
a 1 125 0 
a 1 126 0 
a 1 127 0 
a 1 128 0 
a 1 129 0 
a 1 130 0 
a 1 131 0 
a 1 132 0 
a 1 133 0 
a 1 134 0 
a 1 135 0 
a 1 137 0 
a 1 138 0 
a 1 139 0 
a 1 140 0 
a 1 141 0 
a 1 142 0 
a 1 143 0 
a 1 144 0 
a 1 145 0 
a 1 146 0 
a 1 147 0 
a 1 148 0 
a 1 149 0 
a 1 150 0 
a 1 152 0 
a 1 153 0 
a 1 154 0 
a 1 155 0 
a 1 156 0 
a 1 157 0 
a 1 158 0 
a 1 159 0 
a 1 160 0 
a 1 161 0 
a 1 162 0 
a 1 163 0 
a 1 164 0 
a 1 165 0 
a 1 167 0 
a 1 168 0 
a 1 169 0 
a 1 170 0 
a 1 171 0 
a 1 172 0 
a 1 173 0 
a 1 174 0 
a 1 175 0 
a 1 176 0 
a 1 177 0 
a 1 178 0 
a 1 179 0 
a 1 180 0 
a 1 182 0 
a 1 183 0 
a 1 184 0 
a 1 185 0 
a 1 186 0 
a 1 187 0 
a 1 188 0 
a 1 189 0 
a 1 190 0 
a 1 191 0 
a 1 192 0 
a 1 193 0 
a 1 194 0 
a 1 195 0 
a 1 197 0 
a 1 198 0 
a 1 199 0 
a 1 200 0 
a 1 201 0 
a 1 202 0 
a 1 203 0 
a 1 204 0 
a 1 205 0 
a 1 206 0 
a 1 207 0 
a 1 208 0 
a 1 209 0 
a 1 210 0 
a 1 212 0 
a 1 213 0 
a 1 214 0 
a 1 215 0 
a 1 216 0 
a 1 217 0 
a 1 218 0 
a 1 219 0 
a 1 220 0 
a 1 221 0 
a 1 222 0 
a 1 223 0 
a 1 224 0 
a 1 225 0 
a 1 227 0 
a 1 228 0 
a 1 229 0 
a 1 230 0 
a 1 231 0 
a 1 232 0 
a 1 233 0 
a 1 234 0 
a 1 235 0 
a 1 236 0 
a 1 237 0 
a 1 238 0 
a 1 239 0 
a 1 240 0 
a 17 33 0 
a 17 34 0 
a 17 35 0 
a 17 36 0 
a 17 37 0 
a 17 38 0 
a 17 39 0 
a 17 40 0 
a 17 41 0 
a 17 42 0 
a 17 43 0 
a 17 44 0 
a 17 45 0 
a 17 48 0 
a 17 49 0 
a 17 50 0 
a 17 51 0 
a 17 52 0 
a 17 53 0 
a 17 54 0 
a 17 55 0 
a 17 56 0 
a 17 57 0 
a 17 58 0 
a 17 59 0 
a 17 60 0 
a 17 63 0 
a 17 64 0 
a 17 65 0 
a 17 66 0 
a 17 67 0 
a 17 68 0 
a 17 69 0 
a 17 70 0 
a 17 71 0 
a 17 72 0 
a 17 73 0 
a 17 74 0 
a 17 75 0 
a 17 78 0 
a 17 79 0 
a 17 80 0 
a 17 81 0 
a 17 82 0 
a 17 83 0 
a 17 84 0 
a 17 85 0 
a 17 86 0 
a 17 87 0 
a 17 88 0 
a 17 89 0 
a 17 90 0 
a 17 93 0 
a 17 94 0 
a 17 95 0 
a 17 96 0 
a 17 97 0 
a 17 98 0 
a 17 99 0 
a 17 100 0 
a 17 101 0 
a 17 102 0 
a 17 103 0 
a 17 104 0 
a 17 105 0 
a 17 108 0 
a 17 109 0 
a 17 110 0 
a 17 111 0 
a 17 112 0 
a 17 113 0 
a 17 114 0 
a 17 115 0 
a 17 116 0 
a 17 117 0 
a 17 118 0 
a 17 119 0 
a 17 120 0 
a 17 123 0 
a 17 124 0 
a 17 125 0 
a 17 126 0 
a 17 127 0 
a 17 128 0 
a 17 129 0 
a 17 130 0 
a 17 131 0 
a 17 132 0 
a 17 133 0 
a 17 134 0 
a 17 135 0 
a 17 138 0 
a 17 139 0 
a 17 140 0 
a 17 141 0 
a 17 142 0 
a 17 143 0 
a 17 144 0 
a 17 145 0 
a 17 146 0 
a 17 147 0 
a 17 148 0 
a 17 149 0 
a 17 150 0 
a 17 153 0 
a 17 154 0 
a 17 155 0 
a 17 156 0 
a 17 157 0 
a 17 158 0 
a 17 159 0 
a 17 160 0 
a 17 161 0 
a 17 162 0 
a 17 163 0 
a 17 164 0 
a 17 165 0 
a 17 168 0 
a 17 169 0 
a 17 170 0 
a 17 171 0 
a 17 172 0 
a 17 173 0 
a 17 174 0 
a 17 175 0 
a 17 176 0 
a 17 177 0 
a 17 178 0 
a 17 179 0 
a 17 180 0 
a 17 183 0 
a 17 184 0 
a 17 185 0 
a 17 186 0 
a 17 187 0 
a 17 188 0 
a 17 189 0 
a 17 190 0 
a 17 191 0 
a 17 192 0 
a 17 193 0 
a 17 194 0 
a 17 195 0 
a 17 198 0 
a 17 199 0 
a 17 200 0 
a 17 201 0 
a 17 202 0 
a 17 203 0 
a 17 204 0 
a 17 205 0 
a 17 206 0 
a 17 207 0 
a 17 208 0 
a 17 209 0 
a 17 210 0 
a 17 213 0 
a 17 214 0 
a 17 215 0 
a 17 216 0 
a 17 217 0 
a 17 218 0 
a 17 219 0 
a 17 220 0 
a 17 221 0 
a 17 222 0 
a 17 223 0 
a 17 224 0 
a 17 225 0 
a 17 228 0 
a 17 229 0 
a 17 230 0 
a 17 231 0 
a 17 232 0 
a 17 233 0 
a 17 234 0 
a 17 235 0 
a 17 236 0 
a 17 237 0 
a 17 238 0 
a 17 239 0 
a 17 240 0 
a 33 49 0 
a 33 50 0 
a 33 51 0 
a 33 52 0 
a 33 53 0 
a 33 54 0 
a 33 55 0 
a 33 56 0 
a 33 57 0 
a 33 58 0 
a 33 59 0 
a 33 60 0 
a 33 64 0 
a 33 65 0 
a 33 66 0 
a 33 67 0 
a 33 68 0 
a 33 69 0 
a 33 70 0 
a 33 71 0 
a 33 72 0 
a 33 73 0 
a 33 74 0 
a 33 75 0 
a 33 79 0 
a 33 80 0 
a 33 81 0 
a 33 82 0 
a 33 83 0 
a 33 84 0 
a 33 85 0 
a 33 86 0 
a 33 87 0 
a 33 88 0 
a 33 89 0 
a 33 90 0 
a 33 94 0 
a 33 95 0 
a 33 96 0 
a 33 97 0 
a 33 98 0 
a 33 99 0 
a 33 100 0 
a 33 101 0 
a 33 102 0 
a 33 103 0 
a 33 104 0 
a 33 105 0 
a 33 109 0 
a 33 110 0 
a 33 111 0 
a 33 112 0 
a 33 113 0 
a 33 114 0 
a 33 115 0 
a 33 116 0 
a 33 117 0 
a 33 118 0 
a 33 119 0 
a 33 120 0 
a 33 124 0 
a 33 125 0 
a 33 126 0 
a 33 127 0 
a 33 128 0 
a 33 129 0 
a 33 130 0 
a 33 131 0 
a 33 132 0 
a 33 133 0 
a 33 134 0 
a 33 135 0 
a 33 139 0 
a 33 140 0 
a 33 141 0 
a 33 142 0 
a 33 143 0 
a 33 144 0 
a 33 145 0 
a 33 146 0 
a 33 147 0 
a 33 148 0 
a 33 149 0 
a 33 150 0 
a 33 154 0 
a 33 155 0 
a 33 156 0 
a 33 157 0 
a 33 158 0 
a 33 159 0 
a 33 160 0 
a 33 161 0 
a 33 162 0 
a 33 163 0 
a 33 164 0 
a 33 165 0 
a 33 169 0 
a 33 170 0 
a 33 171 0 
a 33 172 0 
a 33 173 0 
a 33 174 0 
a 33 175 0 
a 33 176 0 
a 33 177 0 
a 33 178 0 
a 33 179 0 
a 33 180 0 
a 33 184 0 
a 33 185 0 
a 33 186 0 
a 33 187 0 
a 33 188 0 
a 33 189 0 
a 33 190 0 
a 33 191 0 
a 33 192 0 
a 33 193 0 
a 33 194 0 
a 33 195 0 
a 33 199 0 
a 33 200 0 
a 33 201 0 
a 33 202 0 
a 33 203 0 
a 33 204 0 
a 33 205 0 
a 33 206 0 
a 33 207 0 
a 33 208 0 
a 33 209 0 
a 33 210 0 
a 33 214 0 
a 33 215 0 
a 33 216 0 
a 33 217 0 
a 33 218 0 
a 33 219 0 
a 33 220 0 
a 33 221 0 
a 33 222 0 
a 33 223 0 
a 33 224 0 
a 33 225 0 
a 33 229 0 
a 33 230 0 
a 33 231 0 
a 33 232 0 
a 33 233 0 
a 33 234 0 
a 33 235 0 
a 33 236 0 
a 33 237 0 
a 33 238 0 
a 33 239 0 
a 33 240 0 
a 49 65 0 
a 49 66 0 
a 49 67 0 
a 49 68 0 
a 49 69 0 
a 49 70 0 
a 49 71 0 
a 49 72 0 
a 49 73 0 
a 49 74 0 
a 49 75 0 
a 49 80 0 
a 49 81 0 
a 49 82 0 
a 49 83 0 
a 49 84 0 
a 49 85 0 
a 49 86 0 
a 49 87 0 
a 49 88 0 
a 49 89 0 
a 49 90 0 
a 49 95 0 
a 49 96 0 
a 49 97 0 
a 49 98 0 
a 49 99 0 
a 49 100 0 
a 49 101 0 
a 49 102 0 
a 49 103 0 
a 49 104 0 
a 49 105 0 
a 49 110 0 
a 49 111 0 
a 49 112 0 
a 49 113 0 
a 49 114 0 
a 49 115 0 
a 49 116 0 
a 49 117 0 
a 49 118 0 
a 49 119 0 
a 49 120 0 
a 49 125 0 
a 49 126 0 
a 49 127 0 
a 49 128 0 
a 49 129 0 
a 49 130 0 
a 49 131 0 
a 49 132 0 
a 49 133 0 
a 49 134 0 
a 49 135 0 
a 49 140 0 
a 49 141 0 
a 49 142 0 
a 49 143 0 
a 49 144 0 
a 49 145 0 
a 49 146 0 
a 49 147 0 
a 49 148 0 
a 49 149 0 
a 49 150 0 
a 49 155 0 
a 49 156 0 
a 49 157 0 
a 49 158 0 
a 49 159 0 
a 49 160 0 
a 49 161 0 
a 49 162 0 
a 49 163 0 
a 49 164 0 
a 49 165 0 
a 49 170 0 
a 49 171 0 
a 49 172 0 
a 49 173 0 
a 49 174 0 
a 49 175 0 
a 49 176 0 
a 49 177 0 
a 49 178 0 
a 49 179 0 
a 49 180 0 
a 49 185 0 
a 49 186 0 
a 49 187 0 
a 49 188 0 
a 49 189 0 
a 49 190 0 
a 49 191 0 
a 49 192 0 
a 49 193 0 
a 49 194 0 
a 49 195 0 
a 49 200 0 
a 49 201 0 
a 49 202 0 
a 49 203 0 
a 49 204 0 
a 49 205 0 
a 49 206 0 
a 49 207 0 
a 49 208 0 
a 49 209 0 
a 49 210 0 
a 49 215 0 
a 49 216 0 
a 49 217 0 
a 49 218 0 
a 49 219 0 
a 49 220 0 
a 49 221 0 
a 49 222 0 
a 49 223 0 
a 49 224 0 
a 49 225 0 
a 49 230 0 
a 49 231 0 
a 49 232 0 
a 49 233 0 
a 49 234 0 
a 49 235 0 
a 49 236 0 
a 49 237 0 
a 49 238 0 
a 49 239 0 
a 49 240 0 
a 65 81 0 
a 65 82 0 
a 65 83 0 
a 65 84 0 
a 65 85 0 
a 65 86 0 
a 65 87 0 
a 65 88 0 
a 65 89 0 
a 65 90 0 
a 65 96 0 
a 65 97 0 
a 65 98 0 
a 65 99 0 
a 65 100 0 
a 65 101 0 
a 65 102 0 
a 65 103 0 
a 65 104 0 
a 65 105 0 
a 65 111 0 
a 65 112 0 
a 65 113 0 
a 65 114 0 
a 65 115 0 
a 65 116 0 
a 65 117 0 
a 65 118 0 
a 65 119 0 
a 65 120 0 
a 65 126 0 
a 65 127 0 
a 65 128 0 
a 65 129 0 
a 65 130 0 
a 65 131 0 
a 65 132 0 
a 65 133 0 
a 65 134 0 
a 65 135 0 
a 65 141 0 
a 65 142 0 
a 65 143 0 
a 65 144 0 
a 65 145 0 
a 65 146 0 
a 65 147 0 
a 65 148 0 
a 65 149 0 
a 65 150 0 
a 65 156 0 
a 65 157 0 
a 65 158 0 
a 65 159 0 
a 65 160 0 
a 65 161 0 
a 65 162 0 
a 65 163 0 
a 65 164 0 
a 65 165 0 
a 65 171 0 
a 65 172 0 
a 65 173 0 
a 65 174 0 
a 65 175 0 
a 65 176 0 
a 65 177 0 
a 65 178 0 
a 65 179 0 
a 65 180 0 
a 65 186 0 
a 65 187 0 
a 65 188 0 
a 65 189 0 
a 65 190 0 
a 65 191 0 
a 65 192 0 
a 65 193 0 
a 65 194 0 
a 65 195 0 
a 65 201 0 
a 65 202 0 
a 65 203 0 
a 65 204 0 
a 65 205 0 
a 65 206 0 
a 65 207 0 
a 65 208 0 
a 65 209 0 
a 65 210 0 
a 65 216 0 
a 65 217 0 
a 65 218 0 
a 65 219 0 
a 65 220 0 
a 65 221 0 
a 65 222 0 
a 65 223 0 
a 65 224 0 
a 65 225 0 
a 65 231 0 
a 65 232 0 
a 65 233 0 
a 65 234 0 
a 65 235 0 
a 65 236 0 
a 65 237 0 
a 65 238 0 
a 65 239 0 
a 65 240 0 
a 81 97 0 
a 81 98 0 
a 81 99 0 
a 81 100 0 
a 81 101 0 
a 81 102 0 
a 81 103 0 
a 81 104 0 
a 81 105 0 
a 81 112 0 
a 81 113 0 
a 81 114 0 
a 81 115 0 
a 81 116 0 
a 81 117 0 
a 81 118 0 
a 81 119 0 
a 81 120 0 
a 81 127 0 
a 81 128 0 
a 81 129 0 
a 81 130 0 
a 81 131 0 
a 81 132 0 
a 81 133 0 
a 81 134 0 
a 81 135 0 
a 81 142 0 
a 81 143 0 
a 81 144 0 
a 81 145 0 
a 81 146 0 
a 81 147 0 
a 81 148 0 
a 81 149 0 
a 81 150 0 
a 81 157 0 
a 81 158 0 
a 81 159 0 
a 81 160 0 
a 81 161 0 
a 81 162 0 
a 81 163 0 
a 81 164 0 
a 81 165 0 
a 81 172 0 
a 81 173 0 
a 81 174 0 
a 81 175 0 
a 81 176 0 
a 81 177 0 
a 81 178 0 
a 81 179 0 
a 81 180 0 
a 81 187 0 
a 81 188 0 
a 81 189 0 
a 81 190 0 
a 81 191 0 
a 81 192 0 
a 81 193 0 
a 81 194 0 
a 81 195 0 
a 81 202 0 
a 81 203 0 
a 81 204 0 
a 81 205 0 
a 81 206 0 
a 81 207 0 
a 81 208 0 
a 81 209 0 
a 81 210 0 
a 81 217 0 
a 81 218 0 
a 81 219 0 
a 81 220 0 
a 81 221 0 
a 81 222 0 
a 81 223 0 
a 81 224 0 
a 81 225 0 
a 81 232 0 
a 81 233 0 
a 81 234 0 
a 81 235 0 
a 81 236 0 
a 81 237 0 
a 81 238 0 
a 81 239 0 
a 81 240 0 
a 97 113 0 
a 97 114 0 
a 97 115 0 
a 97 116 0 
a 97 117 0 
a 97 118 0 
a 97 119 0 
a 97 120 0 
a 97 128 0 
a 97 129 0 
a 97 130 0 
a 97 131 0 
a 97 132 0 
a 97 133 0 
a 97 134 0 
a 97 135 0 
a 97 143 0 
a 97 144 0 
a 97 145 0 
a 97 146 0 
a 97 147 0 
a 97 148 0 
a 97 149 0 
a 97 150 0 
a 97 158 0 
a 97 159 0 
a 97 160 0 
a 97 161 0 
a 97 162 0 
a 97 163 0 
a 97 164 0 
a 97 165 0 
a 97 173 0 
a 97 174 0 
a 97 175 0 
a 97 176 0 
a 97 177 0 
a 97 178 0 
a 97 179 0 
a 97 180 0 
a 97 188 0 
a 97 189 0 
a 97 190 0 
a 97 191 0 
a 97 192 0 
a 97 193 0 
a 97 194 0 
a 97 195 0 
a 97 203 0 
a 97 204 0 
a 97 205 0 
a 97 206 0 
a 97 207 0 
a 97 208 0 
a 97 209 0 
a 97 210 0 
a 97 218 0 
a 97 219 0 
a 97 220 0 
a 97 221 0 
a 97 222 0 
a 97 223 0 
a 97 224 0 
a 97 225 0 
a 97 233 0 
a 97 234 0 
a 97 235 0 
a 97 236 0 
a 97 237 0 
a 97 238 0 
a 97 239 0 
a 97 240 0 
a 113 129 0 
a 113 130 0 
a 113 131 0 
a 113 132 0 
a 113 133 0 
a 113 134 0 
a 113 135 0 
a 113 144 0 
a 113 145 0 
a 113 146 0 
a 113 147 0 
a 113 148 0 
a 113 149 0 
a 113 150 0 
a 113 159 0 
a 113 160 0 
a 113 161 0 
a 113 162 0 
a 113 163 0 
a 113 164 0 
a 113 165 0 
a 113 174 0 
a 113 175 0 
a 113 176 0 
a 113 177 0 
a 113 178 0 
a 113 179 0 
a 113 180 0 
a 113 189 0 
a 113 190 0 
a 113 191 0 
a 113 192 0 
a 113 193 0 
a 113 194 0 
a 113 195 0 
a 113 204 0 
a 113 205 0 
a 113 206 0 
a 113 207 0 
a 113 208 0 
a 113 209 0 
a 113 210 0 
a 113 219 0 
a 113 220 0 
a 113 221 0 
a 113 222 0 
a 113 223 0 
a 113 224 0 
a 113 225 0 
a 113 234 0 
a 113 235 0 
a 113 236 0 
a 113 237 0 
a 113 238 0 
a 113 239 0 
a 113 240 0 
a 129 145 0 
a 129 146 0 
a 129 147 0 
a 129 148 0 
a 129 149 0 
a 129 150 0 
a 129 160 0 
a 129 161 0 
a 129 162 0 
a 129 163 0 
a 129 164 0 
a 129 165 0 
a 129 175 0 
a 129 176 0 
a 129 177 0 
a 129 178 0 
a 129 179 0 
a 129 180 0 
a 129 190 0 
a 129 191 0 
a 129 192 0 
a 129 193 0 
a 129 194 0 
a 129 195 0 
a 129 205 0 
a 129 206 0 
a 129 207 0 
a 129 208 0 
a 129 209 0 
a 129 210 0 
a 129 220 0 
a 129 221 0 
a 129 222 0 
a 129 223 0 
a 129 224 0 
a 129 225 0 
a 129 235 0 
a 129 236 0 
a 129 237 0 
a 129 238 0 
a 129 239 0 
a 129 240 0 
a 145 161 0 
a 145 162 0 
a 145 163 0 
a 145 164 0 
a 145 165 0 
a 145 176 0 
a 145 177 0 
a 145 178 0 
a 145 179 0 
a 145 180 0 
a 145 191 0 
a 145 192 0 
a 145 193 0 
a 145 194 0 
a 145 195 0 
a 145 206 0 
a 145 207 0 
a 145 208 0 
a 145 209 0 
a 145 210 0 
a 145 221 0 
a 145 222 0 
a 145 223 0 
a 145 224 0 
a 145 225 0 
a 145 236 0 
a 145 237 0 
a 145 238 0 
a 145 239 0 
a 145 240 0 
a 161 177 0 
a 161 178 0 
a 161 179 0 
a 161 180 0 
a 161 192 0 
a 161 193 0 
a 161 194 0 
a 161 195 0 
a 161 207 0 
a 161 208 0 
a 161 209 0 
a 161 210 0 
a 161 222 0 
a 161 223 0 
a 161 224 0 
a 161 225 0 
a 161 237 0 
a 161 238 0 
a 161 239 0 
a 161 240 0 
a 177 193 0 
a 177 194 0 
a 177 195 0 
a 177 208 0 
a 177 209 0 
a 177 210 0 
a 177 223 0 
a 177 224 0 
a 177 225 0 
a 177 238 0 
a 177 239 0 
a 177 240 0 
a 193 209 0 
a 193 210 0 
a 193 224 0 
a 193 225 0 
a 193 239 0 
a 193 240 0 
a 209 225 0 
a 209 240 0 
